x=20;
y=20;
c=30;

n=50;
p=[4 4 2 4 2 3 3 3 2 1 2 1 4 4 4 2 4 4 4 3 2 2 1 2 3 2 3 1 3 4 1 4 1 4 1 4 2 3 1 4 1 4 4 3 2 3 4 4 2 2];// 2 2 1 1 3 4 3 2 3 1 3 4 1 3 3 2 2 1 1 2 1 4 4 1 1 2 1 4 4 4 2 1 3 2 4 4 3 2 2 4 4 2 2 2 2 3 1 2 2 3];
w=[2 3 1 4 3 3 2 2 4 3 1 1 1 3 4 3 4 3 3 4 4 1 4 1 4 3 3 1 4 4 2 3 2 2 1 1 3 1 3 3 1 1 2 1 3 2 2 4 4 3];// 2 2 4 1 1 3 2 3 2 3 1 1 2 4 1 1 3 1 3 1 3 2 3 3 1 3 3 1 3 3 3 4 2 1 4 4 1 3 4 4 2 4 1 1 1 2 3 2 1 1];
s=[9 5 8 5 1 2 3 1 3 7 7 2 9 1 4 3 4 8 8 4 1 6 7 2 5 8 8 2 8 7 7 4 6 8 2 1 5 5 9 6 7 6 1 4 9 9 8 5 2 1];// 7 1 7 8 2 7 3 1 1 3 9 9 3 7 5 8 1 2 9 8 7 1 3 4 4 8 4 7 3 8 8 7 6 7 6 3 6 4 9 6 2 5 4 2 8 3 3 2 2 8];
